
  14    0


   0   9 2 4 5 6 9 10 11 12 13 
   9   1 3 
  10   1 7 
   8   1 8 
  10   1 7 
   1   1 7 
   1   1 14
   6   1 14
   4   1 14
   7   1 14
   3   1 14
   2   1 14
   6   1 14
   0   0 
